letting n =  10
letting blocks =  [[1, 1], [1, 7], [1, 9], [2, 1], [2, 9], [3, 1], [3, 3], [3, 4], [4, 3], [4, 9], [5, 2], [5, 6], [5, 10], [6, 1], [6, 3], [6, 4], [6, 10], [7, 8], [8, 5], [8, 8], [8, 9], [8, 10], [9, 2], [10, 4], [10, 7], [10, 9]]
